14 17

2 9 17 2 5 13 1 7 10 5 4 10
1 8 2 14 12 12 4 12
15 10 17 14 5 9 3 10 11 11 16 2
14 7 8 5 11 15 9 9
12 5 1 12 9 4 6 6
11 3 2 14 13 4 12 14 5 7 3 4
15 6 16 3 17 3 6 10 4 4
6 7 9 3 11 15 13 3 17 4
8 6 11 2 10 14 15 6 6 8
12 6 7 10 8 6 4 5 14 10
14 6 2 5 17 8 15 15 3 13
11 13 9 8 8 15 1 6 2 14
5 10 10 15 2 11 17 7 7 13 1 3
7 15 9 5 14 10 2 2 10 15
